c nIsolatedPIs 32
c maxPI 96
p cnf 319 670
c gate 97 40 88 0
40 -97 0
88 -97 0
-40 -88 97 0
c gate 98 -40 -88 0
-40 -98 0
-88 -98 0
40 88 98 0
c gate 99 39 87 0
39 -99 0
87 -99 0
-39 -87 99 0
c gate 100 37 85 0
37 -100 0
85 -100 0
-37 -85 100 0
c gate 101 38 86 0
38 -101 0
86 -101 0
-38 -86 101 0
c gate 102 -100 -101 0
-100 -102 0
-101 -102 0
100 101 102 0
c gate 103 -38 -86 0
-38 -103 0
-86 -103 0
38 86 103 0
c gate 104 -39 -87 0
-39 -104 0
-87 -104 0
39 87 104 0
c gate 105 -99 -104 0
-99 -105 0
-104 -105 0
99 104 105 0
c gate 106 -103 105 0
-103 -106 0
105 -106 0
103 -105 106 0
c gate 107 -102 106 0
-102 -107 0
106 -107 0
102 -106 107 0
c gate 108 -99 -107 0
-99 -108 0
-107 -108 0
99 107 108 0
c gate 109 -98 -108 0
-98 -109 0
-108 -109 0
98 108 109 0
c gate 110 -97 -109 0
-97 -110 0
-109 -110 0
97 109 110 0
c gate 111 36 84 0
36 -111 0
84 -111 0
-36 -84 111 0
c gate 112 35 83 0
35 -112 0
83 -112 0
-35 -83 112 0
c gate 113 -111 -112 0
-111 -113 0
-112 -113 0
111 112 113 0
c gate 114 -33 -81 0
-33 -114 0
-81 -114 0
33 81 114 0
c gate 115 1 49 0
1 -115 0
49 -115 0
-1 -49 115 0
c gate 116 2 115 0
2 -116 0
115 -116 0
-2 -115 116 0
c gate 117 -50 -116 0
-50 -117 0
-116 -117 0
50 116 117 0
c gate 118 -2 -115 0
-2 -118 0
-115 -118 0
2 115 118 0
c gate 119 -3 -51 0
-3 -119 0
-51 -119 0
3 51 119 0
c gate 120 -118 -119 0
-118 -120 0
-119 -120 0
118 119 120 0
c gate 121 -117 120 0
-117 -121 0
120 -121 0
117 -120 121 0
c gate 122 4 52 0
4 -122 0
52 -122 0
-4 -52 122 0
c gate 123 3 51 0
3 -123 0
51 -123 0
-3 -51 123 0
c gate 124 -122 -123 0
-122 -124 0
-123 -124 0
122 123 124 0
c gate 125 -121 124 0
-121 -125 0
124 -125 0
121 -124 125 0
c gate 126 -4 -52 0
-4 -126 0
-52 -126 0
4 52 126 0
c gate 127 -5 -53 0
-5 -127 0
-53 -127 0
5 53 127 0
c gate 128 -126 -127 0
-126 -128 0
-127 -128 0
126 127 128 0
c gate 129 -125 128 0
-125 -129 0
128 -129 0
125 -128 129 0
c gate 130 6 54 0
6 -130 0
54 -130 0
-6 -54 130 0
c gate 131 5 53 0
5 -131 0
53 -131 0
-5 -53 131 0
c gate 132 -130 -131 0
-130 -132 0
-131 -132 0
130 131 132 0
c gate 133 -129 132 0
-129 -133 0
132 -133 0
129 -132 133 0
c gate 134 -7 -55 0
-7 -134 0
-55 -134 0
7 55 134 0
c gate 135 -6 -54 0
-6 -135 0
-54 -135 0
6 54 135 0
c gate 136 -134 -135 0
-134 -136 0
-135 -136 0
134 135 136 0
c gate 137 -133 136 0
-133 -137 0
136 -137 0
133 -136 137 0
c gate 138 7 55 0
7 -138 0
55 -138 0
-7 -55 138 0
c gate 139 8 56 0
8 -139 0
56 -139 0
-8 -56 139 0
c gate 140 -138 -139 0
-138 -140 0
-139 -140 0
138 139 140 0
c gate 141 -137 140 0
-137 -141 0
140 -141 0
137 -140 141 0
c gate 142 -12 -60 0
-12 -142 0
-60 -142 0
12 60 142 0
c gate 143 11 -142 0
11 -143 0
-142 -143 0
-11 142 143 0
c gate 144 59 -142 0
59 -144 0
-142 -144 0
-59 142 144 0
c gate 145 -143 -144 0
-143 -145 0
-144 -145 0
143 144 145 0
c gate 146 -16 -64 0
-16 -146 0
-64 -146 0
16 64 146 0
c gate 147 -13 -61 0
-13 -147 0
-61 -147 0
13 61 147 0
c gate 148 -8 -56 0
-8 -148 0
-56 -148 0
8 56 148 0
c gate 149 -147 -148 0
-147 -149 0
-148 -149 0
147 148 149 0
c gate 150 -146 149 0
-146 -150 0
149 -150 0
146 -149 150 0
c gate 151 14 62 0
14 -151 0
62 -151 0
-14 -62 151 0
c gate 152 13 61 0
13 -152 0
61 -152 0
-13 -61 152 0
c gate 153 -151 -152 0
-151 -153 0
-152 -153 0
151 152 153 0
c gate 154 -10 -58 0
-10 -154 0
-58 -154 0
10 58 154 0
c gate 155 -9 -57 0
-9 -155 0
-57 -155 0
9 57 155 0
c gate 156 -154 -155 0
-154 -156 0
-155 -156 0
154 155 156 0
c gate 157 153 156 0
153 -157 0
156 -157 0
-153 -156 157 0
c gate 158 150 157 0
150 -158 0
157 -158 0
-150 -157 158 0
c gate 159 -145 158 0
-145 -159 0
158 -159 0
145 -158 159 0
c gate 160 12 60 0
12 -160 0
60 -160 0
-12 -60 160 0
c gate 161 59 143 0
59 -161 0
143 -161 0
-59 -143 161 0
c gate 162 -160 -161 0
-160 -162 0
-161 -162 0
160 161 162 0
c gate 163 -15 -63 0
-15 -163 0
-63 -163 0
15 63 163 0
c gate 164 -14 -62 0
-14 -164 0
-62 -164 0
14 62 164 0
c gate 165 -163 -164 0
-163 -165 0
-164 -165 0
163 164 165 0
c gate 166 16 64 0
16 -166 0
64 -166 0
-16 -64 166 0
c gate 167 15 63 0
15 -167 0
63 -167 0
-15 -63 167 0
c gate 168 -166 -167 0
-166 -168 0
-167 -168 0
166 167 168 0
c gate 169 9 57 0
9 -169 0
57 -169 0
-9 -57 169 0
c gate 170 10 58 0
10 -170 0
58 -170 0
-10 -58 170 0
c gate 171 -169 -170 0
-169 -171 0
-170 -171 0
169 170 171 0
c gate 172 168 171 0
168 -172 0
171 -172 0
-168 -171 172 0
c gate 173 165 172 0
165 -173 0
172 -173 0
-165 -172 173 0
c gate 174 162 173 0
162 -174 0
173 -174 0
-162 -173 174 0
c gate 175 159 174 0
159 -175 0
174 -175 0
-159 -174 175 0
c gate 176 -141 175 0
-141 -176 0
175 -176 0
141 -175 176 0
c gate 177 -154 -171 0
-154 -177 0
-171 -177 0
154 171 177 0
c gate 178 -145 177 0
-145 -178 0
177 -178 0
145 -177 178 0
c gate 179 162 -178 0
162 -179 0
-178 -179 0
-162 178 179 0
c gate 180 -147 -179 0
-147 -180 0
-179 -180 0
147 179 180 0
c gate 181 153 -180 0
153 -181 0
-180 -181 0
-153 180 181 0
c gate 182 165 -181 0
165 -182 0
-181 -182 0
-165 181 182 0
c gate 183 168 -182 0
168 -183 0
-182 -183 0
-168 182 183 0
c gate 184 -146 -183 0
-146 -184 0
-183 -184 0
146 183 184 0
c gate 185 -176 -184 0
-176 -185 0
-184 -185 0
176 184 185 0
c gate 186 -28 -76 0
-28 -186 0
-76 -186 0
28 76 186 0
c gate 187 27 -186 0
27 -187 0
-186 -187 0
-27 186 187 0
c gate 188 75 -186 0
75 -188 0
-186 -188 0
-75 186 188 0
c gate 189 -187 -188 0
-187 -189 0
-188 -189 0
187 188 189 0
c gate 190 -25 -73 0
-25 -190 0
-73 -190 0
25 73 190 0
c gate 191 -29 -77 0
-29 -191 0
-77 -191 0
29 77 191 0
c gate 192 -26 -74 0
-26 -192 0
-74 -192 0
26 74 192 0
c gate 193 -191 -192 0
-191 -193 0
-192 -193 0
191 192 193 0
c gate 194 -190 193 0
-190 -194 0
193 -194 0
190 -193 194 0
c gate 195 32 80 0
32 -195 0
80 -195 0
-32 -80 195 0
c gate 196 31 79 0
31 -196 0
79 -196 0
-31 -79 196 0
c gate 197 -195 -196 0
-195 -197 0
-196 -197 0
195 196 197 0
c gate 198 -24 -72 0
-24 -198 0
-72 -198 0
24 72 198 0
c gate 199 -32 -80 0
-32 -199 0
-80 -199 0
32 80 199 0
c gate 200 -198 -199 0
-198 -200 0
-199 -200 0
198 199 200 0
c gate 201 197 200 0
197 -201 0
200 -201 0
-197 -200 201 0
c gate 202 194 201 0
194 -202 0
201 -202 0
-194 -201 202 0
c gate 203 -189 202 0
-189 -203 0
202 -203 0
189 -202 203 0
c gate 204 28 76 0
28 -204 0
76 -204 0
-28 -76 204 0
c gate 205 75 187 0
75 -205 0
187 -205 0
-75 -187 205 0
c gate 206 -204 -205 0
-204 -206 0
-205 -206 0
204 205 206 0
c gate 207 -31 -79 0
-31 -207 0
-79 -207 0
31 79 207 0
c gate 208 -30 -78 0
-30 -208 0
-78 -208 0
30 78 208 0
c gate 209 -207 -208 0
-207 -209 0
-208 -209 0
207 208 209 0
c gate 210 25 73 0
25 -210 0
73 -210 0
-25 -73 210 0
c gate 211 26 74 0
26 -211 0
74 -211 0
-26 -74 211 0
c gate 212 -210 -211 0
-210 -212 0
-211 -212 0
210 211 212 0
c gate 213 30 78 0
30 -213 0
78 -213 0
-30 -78 213 0
c gate 214 29 77 0
29 -214 0
77 -214 0
-29 -77 214 0
c gate 215 -213 -214 0
-213 -215 0
-214 -215 0
213 214 215 0
c gate 216 212 215 0
212 -216 0
215 -216 0
-212 -215 216 0
c gate 217 209 216 0
209 -217 0
216 -217 0
-209 -216 217 0
c gate 218 206 217 0
206 -218 0
217 -218 0
-206 -217 218 0
c gate 219 203 218 0
203 -219 0
218 -219 0
-203 -218 219 0
c gate 220 -18 -66 0
-18 -220 0
-66 -220 0
18 66 220 0
c gate 221 -19 -67 0
-19 -221 0
-67 -221 0
19 67 221 0
c gate 222 -220 -221 0
-220 -222 0
-221 -222 0
220 221 222 0
c gate 223 17 65 0
17 -223 0
65 -223 0
-17 -65 223 0
c gate 224 18 66 0
18 -224 0
66 -224 0
-18 -66 224 0
c gate 225 -223 -224 0
-223 -225 0
-224 -225 0
223 224 225 0
c gate 226 222 -225 0
222 -226 0
-225 -226 0
-222 225 226 0
c gate 227 20 68 0
20 -227 0
68 -227 0
-20 -68 227 0
c gate 228 19 67 0
19 -228 0
67 -228 0
-19 -67 228 0
c gate 229 -227 -228 0
-227 -229 0
-228 -229 0
227 228 229 0
c gate 230 -226 229 0
-226 -230 0
229 -230 0
226 -229 230 0
c gate 231 -20 -68 0
-20 -231 0
-68 -231 0
20 68 231 0
c gate 232 -17 -65 0
-17 -232 0
-65 -232 0
17 65 232 0
c gate 233 -231 -232 0
-231 -233 0
-232 -233 0
231 232 233 0
c gate 234 222 233 0
222 -234 0
233 -234 0
-222 -233 234 0
c gate 235 230 234 0
230 -235 0
234 -235 0
-230 -234 235 0
c gate 236 23 71 0
23 -236 0
71 -236 0
-23 -71 236 0
c gate 237 24 72 0
24 -237 0
72 -237 0
-24 -72 237 0
c gate 238 -236 -237 0
-236 -238 0
-237 -238 0
236 237 238 0
c gate 239 -21 -69 0
-21 -239 0
-69 -239 0
21 69 239 0
c gate 240 238 -239 0
238 -240 0
-239 -240 0
-238 239 240 0
c gate 241 -22 -70 0
-22 -241 0
-70 -241 0
22 70 241 0
c gate 242 -23 -71 0
-23 -242 0
-71 -242 0
23 71 242 0
c gate 243 -241 -242 0
-241 -243 0
-242 -243 0
241 242 243 0
c gate 244 22 70 0
22 -244 0
70 -244 0
-22 -70 244 0
c gate 245 21 69 0
21 -245 0
69 -245 0
-21 -69 245 0
c gate 246 -244 -245 0
-244 -246 0
-245 -246 0
244 245 246 0
c gate 247 243 246 0
243 -247 0
246 -247 0
-243 -246 247 0
c gate 248 240 247 0
240 -248 0
247 -248 0
-240 -247 248 0
c gate 249 235 248 0
235 -249 0
248 -249 0
-235 -248 249 0
c gate 250 219 249 0
219 -250 0
249 -250 0
-219 -249 250 0
c gate 251 -185 250 0
-185 -251 0
250 -251 0
185 -250 251 0
c gate 252 -231 -239 0
-231 -252 0
-239 -252 0
231 239 252 0
c gate 253 -230 252 0
-230 -253 0
252 -253 0
230 -252 253 0
c gate 254 246 -253 0
246 -254 0
-253 -254 0
-246 253 254 0
c gate 255 243 -254 0
243 -255 0
-254 -255 0
-243 254 255 0
c gate 256 238 -255 0
238 -256 0
-255 -256 0
-238 255 256 0
c gate 257 219 -256 0
219 -257 0
-256 -257 0
-219 256 257 0
c gate 258 -192 -212 0
-192 -258 0
-212 -258 0
192 212 258 0
c gate 259 -189 258 0
-189 -259 0
258 -259 0
189 -258 259 0
c gate 260 206 -259 0
206 -260 0
-259 -260 0
-206 259 260 0
c gate 261 -191 -260 0
-191 -261 0
-260 -261 0
191 260 261 0
c gate 262 215 -261 0
215 -262 0
-261 -262 0
-215 261 262 0
c gate 263 209 -262 0
209 -263 0
-262 -263 0
-209 262 263 0
c gate 264 197 -263 0
197 -264 0
-263 -264 0
-197 263 264 0
c gate 265 -199 -264 0
-199 -265 0
-264 -265 0
199 264 265 0
c gate 266 -257 -265 0
-257 -266 0
-265 -266 0
257 265 266 0
c gate 267 -251 266 0
-251 -267 0
266 -267 0
251 -266 267 0
c gate 268 -114 -267 0
-114 -268 0
-267 -268 0
114 267 268 0
c gate 269 34 82 0
34 -269 0
82 -269 0
-34 -82 269 0
c gate 270 33 81 0
33 -270 0
81 -270 0
-33 -81 270 0
c gate 271 -269 -270 0
-269 -271 0
-270 -271 0
269 270 271 0
c gate 272 -268 271 0
-268 -272 0
271 -272 0
268 -271 272 0
c gate 273 -35 -83 0
-35 -273 0
-83 -273 0
35 83 273 0
c gate 274 -34 -82 0
-34 -274 0
-82 -274 0
34 82 274 0
c gate 275 -273 -274 0
-273 -275 0
-274 -275 0
273 274 275 0
c gate 276 -272 275 0
-272 -276 0
275 -276 0
272 -275 276 0
c gate 277 113 -276 0
113 -277 0
-276 -277 0
-113 276 277 0
c gate 278 -36 -84 0
-36 -278 0
-84 -278 0
36 84 278 0
c gate 279 -37 -85 0
-37 -279 0
-85 -279 0
37 85 279 0
c gate 280 -278 -279 0
-278 -280 0
-279 -280 0
278 279 280 0
c gate 281 -98 280 0
-98 -281 0
280 -281 0
98 -280 281 0
c gate 282 106 281 0
106 -282 0
281 -282 0
-106 -281 282 0
c gate 283 110 282 0
110 -283 0
282 -283 0
-110 -282 283 0
c gate 284 -277 283 0
-277 -284 0
283 -284 0
277 -283 284 0
c gate 285 47 95 0
47 -285 0
95 -285 0
-47 -95 285 0
c gate 286 46 94 0
46 -286 0
94 -286 0
-46 -94 286 0
c gate 287 -45 -93 0
-45 -287 0
-93 -287 0
45 93 287 0
c gate 288 -286 287 0
-286 -288 0
287 -288 0
286 -287 288 0
c gate 289 -285 -288 0
-285 -289 0
-288 -289 0
285 288 289 0
c gate 290 284 -289 0
284 -290 0
-289 -290 0
-284 289 290 0
c gate 291 110 -290 0
110 -291 0
-290 -291 0
-110 290 291 0
c gate 292 43 91 0
43 -292 0
91 -292 0
-43 -91 292 0
c gate 293 -286 -292 0
-286 -293 0
-292 -293 0
286 292 293 0
c gate 294 42 90 0
42 -294 0
90 -294 0
-42 -90 294 0
c gate 295 -47 -95 0
-47 -295 0
-95 -295 0
47 95 295 0
c gate 296 -294 -295 0
-294 -296 0
-295 -296 0
294 295 296 0
c gate 297 41 89 0
41 -297 0
89 -297 0
-41 -89 297 0
c gate 298 -44 -92 0
-44 -298 0
-92 -298 0
44 92 298 0
c gate 299 -297 -298 0
-297 -299 0
-298 -299 0
297 298 299 0
c gate 300 296 299 0
296 -300 0
299 -300 0
-296 -299 300 0
c gate 301 293 300 0
293 -301 0
300 -301 0
-293 -300 301 0
c gate 302 44 92 0
44 -302 0
92 -302 0
-44 -92 302 0
c gate 303 -42 -90 0
-42 -303 0
-90 -303 0
42 90 303 0
c gate 304 -302 -303 0
-302 -304 0
-303 -304 0
302 303 304 0
c gate 305 -48 -96 0
-48 -305 0
-96 -305 0
48 96 305 0
c gate 306 -43 -91 0
-43 -306 0
-91 -306 0
43 91 306 0
c gate 307 -305 -306 0
-305 -307 0
-306 -307 0
305 306 307 0
c gate 308 304 307 0
304 -308 0
307 -308 0
-304 -307 308 0
c gate 309 45 93 0
45 -309 0
93 -309 0
-45 -93 309 0
c gate 310 -41 -89 0
-41 -310 0
-89 -310 0
41 89 310 0
c gate 311 -309 -310 0
-309 -311 0
-310 -311 0
309 310 311 0
c gate 312 -46 -94 0
-46 -312 0
-94 -312 0
46 94 312 0
c gate 313 48 96 0
48 -313 0
96 -313 0
-48 -96 313 0
c gate 314 -312 -313 0
-312 -314 0
-313 -314 0
312 313 314 0
c gate 315 311 314 0
311 -315 0
314 -315 0
-311 -314 315 0
c gate 316 308 315 0
308 -316 0
315 -316 0
-308 -315 316 0
c gate 317 289 316 0
289 -317 0
316 -317 0
-289 -316 317 0
c gate 318 301 317 0
301 -318 0
317 -318 0
-301 -317 318 0
c gate 319 -291 318 0
-291 -319 0
318 -319 0
291 -318 319 0
c PO
319 0
